multiobj/instances/reallike/Ter-rl-5-2--0.80-0.5-3.in
5 2
0 59 64 103 62 
59 0 70 49 40 
64 70 0 118 33 
103 49 118 0 85 
62 40 33 85 0 
0 28268 0 25 0 
28268 0 59142 19 0 
0 59142 0 81044 2879 
25 19 81044 0 0 
0 0 2879 0 0 
0 0 58 0 246 
0 0 0 1 21 
58 0 0 0 0 
0 1 0 0 295 
246 21 0 295 0 
