multiobj/solutions/reallike/Ter-rl-5-2--0.80-0.5-3.out
8 2
3 1 4 2 0 
13216084 100914 
0 2 4 1 3 
14500236 91874 
1 0 2 4 3 
16938504 86828 
0 3 1 4 2 
18512034 62928 
0 3 1 2 4 
23203288 60624 
2 0 3 1 4 
24239040 56246 
1 3 0 2 4 
25692128 49800 
1 0 3 2 4 
35140622 47566 
